
Gurobi 12.0.2 (win64) logging started Wed Dec 10 17:37:13 2025

Set parameter LogFile to value "C:\Ioana\_uni\honours\slp\algorithm\Main_files\results\arachidonic_acid_metabolism\Task_002_Sample002_irr_gurobi.log"
Gurobi Optimizer version 12.0.2 build v12.0.2rc0 (win64 - Windows 11.0 (26100.2))

CPU model: Intel(R) Core(TM) Ultra 5 125H, instruction set [SSE2|AVX|AVX2]
Thread count: 14 physical cores, 18 logical processors, using up to 18 threads

Non-default parameters:
TimeLimit  2200

Optimize a model with 47236 rows, 34502 columns and 146712 nonzeros
Model fingerprint: 0x877ff989
Variable types: 17253 continuous, 17249 integer (17249 binary)
Coefficient statistics:
  Matrix range     [1e-04, 8e+04]
  Objective range  [1e-04, 9e-01]
  Bounds range     [1e+00, 1e+03]
  RHS range        [1e+00, 1e+00]
Presolve removed 30788 rows and 21549 columns
Presolve time: 0.32s
Presolved: 16448 rows, 12953 columns, 54672 nonzeros
Variable types: 6410 continuous, 6543 integer (6543 binary)
Found heuristic solution: objective 7.4867683

Root relaxation: objective 1.070308e-02, 2995 iterations, 0.18 seconds (0.32 work units)

    Nodes    |    Current Node    |     Objective Bounds      |     Work
 Expl Unexpl |  Obj  Depth IntInf | Incumbent    BestBd   Gap | It/Node Time

     0     0    0.01070    0    5    7.48677    0.01070   100%     -    0s
H    0     0                       0.0962753    0.01070  88.9%     -    0s
H    0     0                       0.0473233    0.01070  77.4%     -    0s
     0     0    0.03435    0    7    0.04732    0.03435  27.4%     -    0s

Cutting planes:
  Cover: 5
  MIR: 4
  Flow cover: 3
  Flow path: 1
  Relax-and-lift: 1

Explored 1 nodes (3244 simplex iterations) in 0.80 seconds (0.94 work units)
Thread count was 18 (of 18 available processors)

Solution count 3: 0.0473233 0.0962753 7.48677 

Optimal solution found (tolerance 1.00e-04)
Best objective 4.732330049486e-02, best bound 4.732330049486e-02, gap 0.0000%
